n_res = 4;
rc = [ 33, 33, 22, 28 ];
n_tasks = 30;
d = [ 1, 6, 5, 6, 6, 6, 7, 1, 4, 1, 4, 3, 2, 7, 7, 8, 9, 1, 2, 7, 5, 5, 9, 4, 1, 10, 10, 7, 8, 8 ];
rr = [| 4, 4, 4, 9, 8, 6, 9, 7, 6, 0, 0, 2, 4, 6, 3, 10, 5, 3, 6, 10, 0, 0, 8, 8, 7, 8, 9, 10, 8, 0
      | 0, 3, 6, 3, 7, 8, 9, 7, 7, 7, 2, 8, 10, 0, 3, 0, 6, 0, 10, 3, 0, 7, 10, 2, 10, 6, 2, 1, 1, 10
      | 7, 2, 1, 4, 0, 3, 0, 9, 10, 7, 8, 9, 1, 2, 3, 6, 7, 2, 0, 6, 0, 0, 6, 0, 0, 0, 7, 4, 0, 4
      | 0, 0, 2, 10, 10, 7, 4, 4, 0, 2, 8, 10, 2, 0, 7, 5, 0, 0, 0, 2, 9, 5, 3, 9, 9, 0, 2, 0, 0, 3 |];
suc = [ { 2 }, 
        { 1 }, 
        { 4 }, 
        { 3 }, 
        { 6 }, 
        { 5 }, 
        { 8 }, 
        { 7 }, 
        { 10 }, 
        { 9 }, 
        { 12 }, 
        { 11 }, 
        { 14 }, 
        { 13 }, 
        { 16 }, 
        { 15 }, 
        { 18 }, 
        { 17 }, 
        { 20 }, 
        { 19 }, 
        { 22 }, 
        { 21 }, 
        { 24 }, 
        { 23 }, 
        { 26 }, 
        { 25 }, 
        { 28 }, 
        { 27 }, 
        { 30 }, 
        { 29 }]; 
